
Version,
  24.2;                                   !- Version Identifier

Timestep,
  1;                                      !- Number of Timesteps per Hour

Building,
  None,                                   !- Name
  0,                                      !- North Axis {deg}
  Suburbs,                                !- Terrain
  0.04,                                   !- Loads Convergence Tolerance Value {W}
  0.4,                                    !- Temperature Convergence Tolerance Value {deltaC}
  MinimalShadowing,                       !- Solar Distribution
  25,                                     !- Maximum Number of Warmup Days
  6;                                      !- Minimum Number of Warmup Days

GlobalGeometryRules,
  UpperLeftCorner,                        !- Starting Vertex Position
  CounterClockWise,                       !- Vertex Entry Direction
  World;                                  !- Coordinate System

Site:Location,
  Chicago_Ohare_Intl_Ap_IL_USA_TMY3_725300, !- Name
  41.98,                                  !- Latitude {deg}
  -87.92,                                 !- Longitude {deg}
  -6,                                     !- Time Zone {hr}
  201;                                    !- Elevation {m}

RunPeriod,
  Annual,                                 !- Name
  1,                                      !- Begin Month
  1,                                      !- Begin Day of Month
  ,                                       !- Begin Year
  12,                                     !- End Month
  31,                                     !- End Day of Month
  ,                                       !- End Year
  Sunday,                                 !- Day of Week for Start Day
  Yes,                                    !- Use Weather File Holidays and Special Days
  Yes,                                    !- Use Weather File Daylight Saving Period
  No,                                     !- Apply Weekend Holiday Rule
  Yes,                                    !- Use Weather File Rain Indicators
  Yes;                                    !- Use Weather File Snow Indicators

Output:Table:SummaryReports,
  AllSummary;                             !- Report Name 1

OutputControl:Files,
  No,                                     !- Output CSV
  No,                                     !- Output MTR
  No,                                     !- Output ESO
  No,                                     !- Output EIO
  No,                                     !- Output Tabular
  No,                                     !- Output SQLite
  No,                                     !- Output JSON
  No,                                     !- Output AUDIT
  No,                                     !- Output Space Sizing
  No,                                     !- Output Zone Sizing
  No,                                     !- Output System Sizing
  No,                                     !- Output DXF
  No,                                     !- Output BND
  No,                                     !- Output RDD
  No,                                     !- Output MDD
  No,                                     !- Output MTD
  No,                                     !- Output END
  No,                                     !- Output SHD
  No,                                     !- Output DFS
  No,                                     !- Output GLHE
  No,                                     !- Output DelightIn
  No,                                     !- Output DelightELdmp
  No,                                     !- Output DelightDFdmp
  No,                                     !- Output EDD
  No,                                     !- Output DBG
  No,                                     !- Output PerfLog
  No,                                     !- Output SLN
  No,                                     !- Output SCI
  No,                                     !- Output WRL
  No,                                     !- Output Screen
  No,                                     !- Output ExtShd
  No;                                     !- Output Tarcog

